
Gurobi 9.0.3 (win64) logging started Sat Feb  5 17:52:05 2022

Changed value of parameter LogFile to logs\CRVRP_5-2-7-100_0_8.LOG
   Prev: logs\CRVRP_5-2-7-100_0_7.LOG  Default: 
Changed value of parameter Seed to 1325657777
   Prev: 1619202988  Min: 0  Max: 2000000000  Default: 0
Parameter Threads unchanged
   Value: 2  Min: 0  Max: 1024  Default: 0
Parameter TimeLimit unchanged
   Value: 60.0  Min: 0.0  Max: inf  Default: inf
Parameter Symmetry unchanged
   Value: 2  Min: -1  Max: 2  Default: -1
Parameter Cuts unchanged
   Value: 2  Min: -1  Max: 3  Default: -1
Parameter PreDepRow unchanged
   Value: 1  Min: -1  Max: 1  Default: -1
Parameter ScaleFlag unchanged
   Value: 1  Min: -1  Max: 3  Default: -1
Parameter NormAdjust unchanged
   Value: 0  Min: -1  Max: 3  Default: -1
Gurobi Optimizer version 9.0.3 build v9.0.3rc0 (win64)
Optimize a model with 1001 rows, 810 columns and 4006 nonzeros
Model fingerprint: 0xe35a85c4
Variable types: 32 continuous, 778 integer (522 binary)
Coefficient statistics:
  Matrix range     [1e+00, 1e+06]
  Objective range  [1e+00, 1e+00]
  Bounds range     [1e+00, 1e+04]
  RHS range        [1e+00, 1e+06]
Presolve removed 618 rows and 515 columns
Presolve time: 0.02s
Presolved: 383 rows, 295 columns, 2037 nonzeros
Variable types: 15 continuous, 280 integer (230 binary)

Root relaxation: objective 3.421916e+02, 239 iterations, 0.01 seconds

    Nodes    |    Current Node    |     Objective Bounds      |     Work
 Expl Unexpl |  Obj  Depth IntInf | Incumbent    BestBd   Gap | It/Node Time

     0     0  342.19162    0   38          -  342.19162      -     -    0s
H    0     0                    1352.8310022  342.19162  74.7%     -    0s
     0     0  375.36968    0   41 1352.83100  375.36968  72.3%     -    0s
H    0     0                    1178.2326313  375.36968  68.1%     -    0s
H    0     0                     917.8377964  375.36968  59.1%     -    0s
     0     0  387.18302    0   56  917.83780  387.18302  57.8%     -    0s
     0     0  387.27386    0   52  917.83780  387.27386  57.8%     -    0s
     0     0  387.27386    0   52  917.83780  387.27386  57.8%     -    0s
     0     0  391.66112    0   50  917.83780  391.66112  57.3%     -    0s
H    0     0                     897.1693874  391.66112  56.3%     -    0s
     0     0  392.00102    0   49  897.16939  392.00102  56.3%     -    0s
     0     0  392.13554    0   56  897.16939  392.13554  56.3%     -    0s
     0     0  392.13554    0   56  897.16939  392.13554  56.3%     -    0s
     0     0  394.13433    0   58  897.16939  394.13433  56.1%     -    0s
H    0     0                     830.6995100  394.13433  52.6%     -    0s
     0     0  394.13433    0   60  830.69951  394.13433  52.6%     -    0s
     0     0  394.78115    0   50  830.69951  394.78115  52.5%     -    0s
H    0     0                     680.6995100  394.78115  42.0%     -    0s
     0     0  394.81275    0   50  680.69951  394.81275  42.0%     -    0s
     0     0  394.81275    0   48  680.69951  394.81275  42.0%     -    0s
H    0     0                     644.6586461  394.82234  38.8%     -    0s
H    0     0                     561.6285686  394.82234  29.7%     -    0s
     0     2  394.82234    0   48  561.62857  394.82234  29.7%     -    0s
H    4     6                     549.8126158  395.06085  28.1%  48.8    0s
H   29    30                     535.7544161  395.60390  26.2%  22.1    0s
H  180   124                     525.5877046  398.00313  24.3%  18.4    0s
*  184   124              30     511.1440078  398.00313  22.1%  18.2    0s
H  238   114                     511.1440077  401.51832  21.4%  17.2    0s
* 1194   169              35     501.2247121  456.39069  8.94%  10.5    1s
* 1508   129              19     474.5297041  462.91171  2.45%  10.7    1s

Cutting planes:
  Gomory: 24
  Cover: 10
  Implied bound: 19
  Projected implied bound: 1
  Clique: 3
  MIR: 40
  StrongCG: 4
  Flow cover: 150
  Inf proof: 7
  Zero half: 2
  RLT: 144
  Relax-and-lift: 42

Explored 2033 nodes (21843 simplex iterations) in 1.78 seconds
Thread count was 2 (of 8 available processors)

Solution count 10: 474.53 501.225 511.144 ... 830.7

Optimal solution found (tolerance 1.00e-04)
Best objective 4.745297040578e+02, best bound 4.745297040578e+02, gap 0.0000%
Discarded solution information
